10
2147483647 100 3 79 33 59 12 69 3 38 
100 2147483647 1 23 73 84 45 1 49 73 
3 1 2147483647 64 34 16 61 16 67 53 
79 23 64 2147483647 93 79 25 53 67 45 
33 73 34 93 2147483647 10 79 24 34 18 
59 84 16 79 10 2147483647 31 21 3 76 
12 45 61 25 79 31 2147483647 64 54 57 
69 1 16 53 24 21 64 2147483647 60 8 
3 49 67 67 34 3 54 60 2147483647 58 
38 73 53 45 18 76 57 8 58 2147483647 
